<number of tasks>
21

<cycle time>
39

<task times>
1 4
2 3
3 9
4 5
5 9
6 4
7 8
8 7
9 5
10 1
11 3
12 1
13 5
14 3
15 5
16 3
17 13
18 5
19 2
20 3
21 7

<precedence relations>
1,2
1,3
2,21
3,4
4,5
4,21
5,6
5,7
6,8
7,8
7,14
8,9
9,10
9,11
9,12
9,13
10,15
11,15
12,15
13,17
13,18
14,19
15,16
15,18
16,17
17,20
18,19

<setup times forward>
1,2:1
2,3:1
2,4:1
2,5:1
2,6:1
2,7:1
2,11:1
2,13:1
2,15:1
2,16:1
2,17:1
2,18:1
2,19:1
2,20:1
3,2:1
4,2:1
4,21:1
5,2:1
5,21:1
6,2:1
6,8:1
6,14:1
6,21:1
7,2:1
7,8:1
7,14:1
7,21:1
9,11:1
9,13:1
10,11:1
10,13:1
10,15:1
11,2:1
11,10:1
11,12:1
11,14:1
11,21:1
12,11:1
12,13:1
12,15:1
13,2:1
13,10:1
13,12:1
13,14:1
13,21:1
14,6:1
14,11:1
14,13:1
14,15:1
14,16:1
14,17:1
14,18:1
14,19:1
14,20:1
15,2:1
15,14:1
15,21:1
16,2:1
16,14:1
16,21:1
17,2:1
17,14:1
17,21:1
18,2:1
18,14:1
18,21:1
19,2:1
19,21:1
20,2:1
20,14:1
20,21:1
21,5:1
21,6:1
21,7:1
21,11:1
21,13:1
21,15:1
21,16:1
21,17:1
21,18:1
21,19:1
21,20:1

<setup times backward>
2,1:1
2,3:1
2,4:1
2,5:1
2,6:1
2,7:1
2,11:1
2,13:1
2,15:1
2,16:1
2,17:1
2,18:1
2,19:1
2,20:1
8,1:1
8,3:1
8,4:1
8,5:1
8,6:1
8,7:1
9,1:1
9,3:1
9,4:1
9,5:1
9,6:1
9,7:1
10,1:1
10,3:1
10,4:1
10,5:1
10,6:1
10,7:1
10,11:1
10,13:1
12,1:1
12,3:1
12,4:1
12,5:1
12,6:1
12,7:1
12,11:1
12,13:1
14,1:1
14,3:1
14,4:1
14,5:1
14,6:1
14,7:1
14,11:1
14,13:1
14,15:1
14,16:1
14,17:1
14,18:1
14,20:1
21,1:1
21,3:1
21,4:1
21,5:1
21,6:1
21,7:1
21,11:1
21,13:1
21,15:1
21,16:1
21,17:1
21,18:1
21,19:1
21,20:1

<end>

<optimal SALBP-1 value>
3


<rand seed>
467321153

<Lower Bounds>
Lm1=3
Lms1=3
Lm2=0
Lm3=1
Lm4=3
Best=3

<Optimal Stations (Iterations: 10)>
3
